c description: Random 3-CNF over 21 variables and 89 clauses
c generator: CNFgen (0.9.2)
c copyright: (C) 2012-2022 Massimo Lauria <massimo.lauria@uniroma1.it>
c url: https://massimolauria.net/cnfgen
c command line: cnfgen --output CNF_4.28/21_bit_89_29.cnf randkcnf 3 21 89
c
p cnf 21 89
-8 -10 -19 0
-4 -6 -10 0
-1 2 6 0
-1 -11 20 0
9 12 -20 0
2 8 17 0
-10 12 14 0
5 14 -20 0
-5 -9 20 0
4 8 -9 0
-11 15 -20 0
3 13 -21 0
-5 -13 -21 0
9 19 -20 0
-4 20 -21 0
-6 13 14 0
-5 -9 11 0
-13 -18 21 0
-3 14 19 0
3 15 17 0
3 -4 -12 0
-3 6 9 0
2 -3 -9 0
-5 18 -20 0
-7 17 20 0
-2 20 21 0
-2 -11 14 0
12 13 -14 0
-4 -8 -15 0
15 16 18 0
-3 18 21 0
-3 -5 11 0
11 -14 -16 0
2 -12 -15 0
-5 6 -8 0
3 13 17 0
3 10 -16 0
7 -17 -19 0
3 4 9 0
-2 -11 -19 0
3 -16 17 0
-6 -9 13 0
-3 -12 -18 0
2 -18 19 0
3 -4 5 0
-10 15 -19 0
-2 -7 -11 0
1 6 -21 0
7 -11 16 0
11 16 19 0
5 -11 -14 0
-3 17 -19 0
-1 -16 21 0
-3 5 -17 0
12 -17 -21 0
5 -11 -18 0
6 7 -9 0
8 -9 -13 0
2 15 17 0
2 8 16 0
3 -4 -7 0
-2 4 15 0
-2 -4 -13 0
13 -14 -20 0
3 4 -15 0
3 4 -10 0
-13 -14 -18 0
-9 10 -18 0
6 -15 -21 0
3 8 -13 0
7 -12 -16 0
7 -16 -17 0
10 -15 21 0
-11 -13 16 0
9 14 -20 0
-6 15 18 0
-4 12 -16 0
1 6 7 0
-2 4 19 0
-11 -15 -16 0
-16 -17 -20 0
-1 -2 -5 0
7 9 11 0
2 15 -16 0
4 16 -18 0
8 -14 21 0
-4 11 -17 0
-4 13 20 0
2 11 21 0
